
<<< setup


<<< generate

Version identifier: 12.10.0.0 | 2019-11-26 | 843d4de2ae
CPXPARAM_TimeLimit                               1200
Tried aggregator 2 times.
MIP Presolve eliminated 5186028 rows and 2952185 columns.
MIP Presolve modified 411750 coefficients.
Aggregator did 1295 substitutions.
Reduced MIP has 63327 rows, 65570 columns, and 397358 nonzeros.
Reduced MIP has 65520 binaries, 0 generals, 0 SOSs, and 0 indicators.
Presolve time = 6.11 sec. (3751.41 ticks)
Found incumbent of value 0.000000 after 9.00 sec. (4789.82 ticks)
Probing fixed 3 vars, tightened 0 bounds.
Probing time = 0.44 sec. (78.08 ticks)
Tried aggregator 1 time.
Detecting symmetries...
MIP Presolve eliminated 3 rows and 3 columns.
MIP Presolve modified 976 coefficients.
Reduced MIP has 63324 rows, 65567 columns, and 397339 nonzeros.
Reduced MIP has 65517 binaries, 0 generals, 0 SOSs, and 0 indicators.
Presolve time = 0.67 sec. (314.88 ticks)
Probing time = 0.11 sec. (22.12 ticks)
Clique table members: 221561.
MIP emphasis: balance optimality and feasibility.
MIP search method: dynamic search.
Parallel mode: deterministic, using up to 4 threads.
Root relaxation solution time = 7.89 sec. (4132.33 ticks)

        Nodes                                         Cuts/
   Node  Left     Objective  IInf  Best Integer    Best Bound    ItCnt     Gap

*     0+    0                            0.0000   118900.0000              --- 
      0     0   118900.0000  1003        0.0000   118900.0000    14322     --- 
*     0+    0                         1854.0000   118900.0000              --- 
      0     0   118900.0000  1003     1854.0000      Cuts: 65    23933     --- 
      0     0   118900.0000  1003     1854.0000    Cuts: 9977    36305     --- 
      0     0   118900.0000  1003     1854.0000      Cuts: 99    46147     --- 
*     0+    0                         3752.0000   118900.0000              --- 
      0     0   118900.0000  1003     3752.0000    Cuts: 9999    60160     --- 
Heuristic still looking.
Heuristic still looking.
      0     2   118900.0000   401     3752.0000   118900.0000    60160     --- 
Elapsed time = 519.72 sec. (297310.75 ticks, tree = 0.02 MB, solutions = 3)
      1     3   118900.0000   757     3752.0000   118900.0000    77448     --- 
      2     4   118900.0000   790     3752.0000   118900.0000    89032     --- 
      3     5   118900.0000   836     3752.0000   118900.0000   101332     --- 
      4     6   118900.0000   909     3752.0000   118900.0000   103950     --- 
      5     7   118900.0000  1023     3752.0000   118900.0000   107902     --- 
      6     8   118900.0000   988     3752.0000   118900.0000   109457     --- 
      7     9   118900.0000   919     3752.0000   118900.0000   110116     --- 
      8     5   118900.0000   925     3752.0000   118900.0000    99534     --- 
      9     3   118900.0000   390     3752.0000   118900.0000    60221     --- 
     13     9   118900.0000   942     3752.0000   118900.0000   129281     --- 
Elapsed time = 585.28 sec. (330425.92 ticks, tree = 0.08 MB, solutions = 3)
     17    11   118900.0000  1008     3752.0000   118900.0000   146873     --- 
     20    16   118900.0000   916     3752.0000   118900.0000   144475     --- 
     21    11   118900.0000   812     3752.0000   118900.0000   131435     --- 
     22    17   118900.0000   945     3752.0000   118900.0000   147356     --- 
     25    19   118900.0000   970     3752.0000   118900.0000   157792     --- 
     28    21   118900.0000   941     3752.0000   118900.0000   151999     --- 
     30    20   118900.0000  1014     3752.0000   118900.0000   163039     --- 
     32    27   118900.0000   938     3752.0000   118900.0000   170763     --- 
     36    30   118900.0000   846     3752.0000   118900.0000   197284     --- 
     37    31   118900.0000   896     3752.0000   118900.0000   211919     --- 
Elapsed time = 620.55 sec. (344121.00 ticks, tree = 0.84 MB, solutions = 3)
     38    36   118900.0000   802     3752.0000   118900.0000   231560     --- 
     41    38   118900.0000   819     3752.0000   118900.0000   233035     --- 
     44    39   118900.0000   803     3752.0000   118900.0000   234473     --- 
     47    42   118900.0000   886     3752.0000   118900.0000   249565     --- 
     50    41   118900.0000   812     3752.0000   118900.0000   236808     --- 
     54    43   118900.0000   804     3752.0000   118900.0000   252688     --- 
     59    55   118900.0000   816     3752.0000   118900.0000   290550     --- 
     65    52   118900.0000   810     3752.0000   118900.0000   285829     --- 
     72    47   118900.0000   874     3752.0000   118900.0000   268539     --- 
     81    48   118900.0000   790     3752.0000   118900.0000   269717     --- 
Elapsed time = 649.25 sec. (359175.92 ticks, tree = 1.38 MB, solutions = 3)
     85    56   118900.0000   763     3752.0000   118900.0000   288309     --- 
     87    76   118900.0000   739     3752.0000   118900.0000   322447     --- 
     88    77   118900.0000   979     3752.0000   118900.0000   326797     --- 
     90    79   118900.0000   813     3752.0000   118900.0000   337345     --- 
     92    62   118900.0000   796     3752.0000   118900.0000   293152     --- 
     96    90   118900.0000   737     3752.0000   118900.0000   344625     --- 
    100    92   118900.0000   689     3752.0000   118900.0000   345493     --- 
    104    95   118900.0000   660     3752.0000   118900.0000   347962     --- 
    105    95   118900.0000   793     3752.0000   118900.0000   356441     --- 
    108    96   118900.0000   633     3752.0000   118900.0000   355434     --- 
Elapsed time = 704.63 sec. (382610.71 ticks, tree = 2.23 MB, solutions = 3)
    112   102   118900.0000   624     3752.0000   118900.0000   358221     --- 
    117   111   118900.0000   827     3752.0000   118900.0000   369209     --- 
    119    79   118900.0000   730     3752.0000   118900.0000   353451     --- 
    122   113   118900.0000   777     3752.0000   118900.0000   370090     --- 
    125   111   118900.0000   773     3752.0000   118900.0000   383697     --- 
    129   112   118900.0000   868     3752.0000   118900.0000   385592     --- 
    132   113   118900.0000   661     3752.0000   118900.0000   362924     --- 
    138   125   118900.0000   615     3752.0000   118900.0000   387839     --- 
    141   133   118900.0000   646     3752.0000   118900.0000   392110     --- 
    145   126    infeasible           3752.0000   118900.0000   389554     --- 
Elapsed time = 731.11 sec. (394433.39 ticks, tree = 2.94 MB, solutions = 3)
    147   126    infeasible           3752.0000   118900.0000   390608     --- 
    153   140   118900.0000   792     3752.0000   118900.0000   403349     --- 
    161   139   118900.0000   664     3752.0000   118900.0000   394619     --- 
    170   145   118900.0000   807     3752.0000   118900.0000   406536     --- 
    175   131    infeasible           3752.0000   118900.0000   393571     --- 
    186   148   118900.0000   789     3752.0000   118900.0000   408861     --- 
    195   149   118900.0000   732     3752.0000   118900.0000   417667     --- 
    200   153    infeasible           3752.0000   118900.0000   419473     --- 
    205   157    infeasible           3752.0000   118900.0000   424856     --- 
    209   153    infeasible           3752.0000   118900.0000   420958     --- 
Elapsed time = 755.08 sec. (405909.72 ticks, tree = 5.10 MB, solutions = 3)
    211   158   118900.0000   564     3752.0000   118900.0000   424973     --- 
    215   159    infeasible           3752.0000   118900.0000   425932     --- 
    220   159    infeasible           3752.0000   118900.0000   426619     --- 
    225   158   118900.0000   446     3752.0000   118900.0000   422290     --- 
    231   159    infeasible           3752.0000   118900.0000   427985     --- 
    237   160   118900.0000   546     3752.0000   118900.0000   428621     --- 
    244   159    infeasible           3752.0000   118900.0000   429609     --- 
    250   185    infeasible           3752.0000   118900.0000   442611     --- 
    258   150   118900.0000   781     3752.0000   118900.0000   409630     --- 
    266   197   118900.0000   789     3752.0000   118900.0000   456057     --- 
Elapsed time = 778.81 sec. (417430.88 ticks, tree = 5.35 MB, solutions = 3)
    269   204   118900.0000   575     3752.0000   118900.0000   464762     --- 
    272   203    infeasible           3752.0000   118900.0000   465749     --- 
    278   203    infeasible           3752.0000   118900.0000   466627     --- 
    283   203   118900.0000   736     3752.0000   118900.0000   458510     --- 
    293   182   118900.0000   522     3752.0000   118900.0000   448692     --- 
    297   204    infeasible           3752.0000   118900.0000   468559     --- 
    304   205   118900.0000   559     3752.0000   118900.0000   475417     --- 
    312   205   118900.0000   547     3752.0000   118900.0000   476073     --- 
    317   211   118900.0000   678     3752.0000   118900.0000   461482     --- 
    322   222   118900.0000   679     3752.0000   118900.0000   481519     --- 
Elapsed time = 799.64 sec. (428427.10 ticks, tree = 6.08 MB, solutions = 3)
    328   206   118900.0000   520     3752.0000   118900.0000   478055     --- 
    339   202   118900.0000   588     3752.0000   118900.0000   471252     --- 
    346   206   118900.0000   518     3752.0000   118900.0000   479310     --- 
    350   207   118900.0000   490     3752.0000   118900.0000   479863     --- 
    356   231   118900.0000   697     3752.0000   118900.0000   484527     --- 
    360   203   118900.0000   612     3752.0000   118900.0000   476662     --- 
    364   217    infeasible           3752.0000   118900.0000   494310     --- 
    368   219   118900.0000   483     3752.0000   118900.0000   489962     --- 
    370   219   118900.0000   500     3752.0000   118900.0000   490779     --- 
    376   218   118900.0000   498     3752.0000   118900.0000   491367     --- 
Elapsed time = 822.64 sec. (439697.31 ticks, tree = 5.90 MB, solutions = 3)
    384   221   118900.0000   535     3752.0000   118900.0000   501336     --- 
    391   215    infeasible           3752.0000   118900.0000   492879     --- 
    396   218    infeasible           3752.0000   118900.0000   499205     --- 
    399   219    infeasible           3752.0000   118900.0000   503439     --- 
    402   218    infeasible           3752.0000   118900.0000   504114     --- 
    406   219   118900.0000   552     3752.0000   118900.0000   504716     --- 
    412   217    infeasible           3752.0000   118900.0000   500130     --- 
    419   219    infeasible           3752.0000   118900.0000   506153     --- 
    426   219    infeasible           3752.0000   118900.0000   506730     --- 
    447   229   118900.0000   573     3752.0000   118900.0000   518278     --- 
Elapsed time = 856.67 sec. (455719.78 ticks, tree = 5.93 MB, solutions = 3)
    473   227    infeasible           3752.0000   118900.0000   520466     --- 
    497   233    infeasible           3752.0000   118900.0000   534751     --- 
    513   244    infeasible           3752.0000   118900.0000   544464     --- 
    533   242   118900.0000   596     3752.0000   118900.0000   556941     --- 
    560   233   118900.0000   535     3752.0000   118900.0000   540946     --- 
    579   243   118900.0000   577     3752.0000   118900.0000   555612     --- 
    603   239    infeasible           3752.0000   118900.0000   565553     --- 
    624   241   118900.0000   576     3752.0000   118900.0000   567940     --- 
    645   243   118900.0000   529     3752.0000   118900.0000   575271     --- 
    669   254   118900.0000   627     3752.0000   118900.0000   591283     --- 
Elapsed time = 934.80 sec. (495107.11 ticks, tree = 6.63 MB, solutions = 3)
    690   248   118900.0000   557     3752.0000   118900.0000   597556     --- 
    712   250   118900.0000   595     3752.0000   118900.0000   611955     --- 
    745   251   118900.0000   547     3752.0000   118900.0000   603201     --- 
    779   276    infeasible           3752.0000   118900.0000   631378     --- 
    797   281    infeasible           3752.0000   118900.0000   638867     --- 
    821   276   118900.0000   418     3752.0000   118900.0000   630057     --- 
    846   303    infeasible           3752.0000   118900.0000   653493     --- 
    877   313   118900.0000   446     3752.0000   118900.0000   662238     --- 
    904   312   118900.0000   454     3752.0000   118900.0000   659156     --- 
    922   314    infeasible           3752.0000   118900.0000   668502     --- 
Elapsed time = 1024.56 sec. (534476.64 ticks, tree = 8.40 MB, solutions = 3)
    930   306    infeasible           3752.0000   118900.0000   670844     --- 
    935   305    infeasible           3752.0000   118900.0000   671328     --- 
    938   334    infeasible           3752.0000   118900.0000   695070     --- 
    942   324   118900.0000   506     3752.0000   118900.0000   675457     --- 
    951   329    infeasible           3752.0000   118900.0000   697739     --- 
    954   326    infeasible           3752.0000   118900.0000   703179     --- 
    956   325    infeasible           3752.0000   118900.0000   705464     --- 
    959   321    infeasible           3752.0000   118900.0000   714727     --- 

Implied bound cuts applied:  990
Flow cuts applied:  44
Mixed integer rounding cuts applied:  16
Gomory fractional cuts applied:  1

Root node processing (before b&c):
  Real time             =  509.45 sec. (293143.42 ticks)
Parallel b&c, 4 threads:
  Real time             =  691.13 sec. (284261.69 ticks)
  Sync time (average)   =   83.88 sec.
  Wait time (average)   =    0.00 sec.
                          ------------
Total (root+branch&cut) = 1200.58 sec. (577405.10 ticks)

<<< solve


OBJECTIVE: 3752

<<< post process


<<< done

